
Gurobi 12.0.2 (win64) logging started Fri Jun  6 10:10:56 2025

Set parameter LogFile to value "C:\Ioana\_uni\honours\slp\algorithm\Main_files\results\others\prox_tubules_new\Task_026_Sample002_irr_gurobi.log"
Gurobi Optimizer version 12.0.2 build v12.0.2rc0 (win64 - Windows 11.0 (26100.2))

CPU model: Intel(R) Core(TM) Ultra 5 125H, instruction set [SSE2|AVX|AVX2]
Thread count: 14 physical cores, 18 logical processors, using up to 18 threads

Non-default parameters:
TimeLimit  2200

Optimize a model with 47658 rows, 34796 columns and 147843 nonzeros
Model fingerprint: 0x36d9dcbd
Variable types: 17402 continuous, 17394 integer (17394 binary)
Coefficient statistics:
  Matrix range     [1e-04, 8e+04]
  Objective range  [1e-04, 9e-01]
  Bounds range     [1e+00, 1e+03]
  RHS range        [1e+00, 1e+00]
Presolve removed 31245 rows and 21834 columns
Presolve time: 0.30s
Presolved: 16413 rows, 12962 columns, 54600 nonzeros
Variable types: 6415 continuous, 6547 integer (6547 binary)

Root relaxation: objective 9.298094e-04, 226 iterations, 0.00 seconds (0.02 work units)

    Nodes    |    Current Node    |     Objective Bounds      |     Work
 Expl Unexpl |  Obj  Depth IntInf | Incumbent    BestBd   Gap | It/Node Time

     0     0    0.00093    0    4          -    0.00093      -     -    0s
H    0     0                       0.9298094    0.00093   100%     -    0s

Cutting planes:
  Gomory: 1
  Cover: 1
  MIR: 6
  Flow cover: 5
  Flow path: 2
  Relax-and-lift: 1

Explored 1 nodes (226 simplex iterations) in 0.54 seconds (0.58 work units)
Thread count was 18 (of 18 available processors)

Solution count 1: 0.929809 

Optimal solution found (tolerance 1.00e-04)
Best objective 9.298094495607e-01, best bound 9.298094495607e-01, gap 0.0000%
